
Gurobi 8.1.1 (linux64, Python) logging started Fri May  3 08:33:39 2019


Gurobi 8.1.1 (linux64, Python) logging started Fri May  3 08:35:42 2019


Gurobi 8.1.1 (linux64, Python) logging started Sex 03 Mai 2019 08:49:32 -03

Academic license - for non-commercial use only

Gurobi 8.1.1 (linux64, Python) logging started Sex 03 Mai 2019 08:52:56 -03

Academic license - for non-commercial use only
Optimize a model with 2 rows, 10 columns and 6 nonzeros
Variable types: 0 continuous, 10 integer (10 binary)
Coefficient statistics:
  Matrix range     [1e+00, 1e+00]
  Objective range  [1e+00, 1e+00]
  Bounds range     [1e+00, 1e+00]
  RHS range        [1e+00, 1e+00]
Found heuristic solution: objective 1.0000000
Presolve removed 2 rows and 10 columns
Presolve time: 0.03s
Presolve: All rows and columns removed

Explored 0 nodes (0 simplex iterations) in 0.05 seconds
Thread count was 1 (of 4 available processors)

Solution count 1: 1 

Optimal solution found (tolerance 1.00e-04)
Best objective 1.000000000000e+00, best bound 1.000000000000e+00, gap 0.0000%

Gurobi 8.1.1 (linux64, Python) logging started Sex 10 Mai 2019 10:29:20 -03

Academic license - for non-commercial use only

Gurobi 8.1.1 (linux64, Python) logging started Sex 10 Mai 2019 10:29:48 -03

Academic license - for non-commercial use only
Optimize a model with 5 rows, 10 columns and 17 nonzeros
Variable types: 0 continuous, 10 integer (10 binary)
Coefficient statistics:
  Matrix range     [1e+00, 1e+00]
  Objective range  [1e+00, 1e+00]
  Bounds range     [1e+00, 1e+00]
  RHS range        [1e+00, 1e+00]
Found heuristic solution: objective 2.0000000
Presolve removed 5 rows and 10 columns
Presolve time: 0.03s
Presolve: All rows and columns removed

Explored 0 nodes (0 simplex iterations) in 0.06 seconds
Thread count was 1 (of 4 available processors)

Solution count 2: 1 2 

Optimal solution found (tolerance 1.00e-04)
Best objective 1.000000000000e+00, best bound 1.000000000000e+00, gap 0.0000%

Gurobi 8.1.1 (linux64, Python) logging started Sex 10 Mai 2019 10:33:47 -03

Academic license - for non-commercial use only
Optimize a model with 5 rows, 10 columns and 17 nonzeros
Variable types: 0 continuous, 10 integer (10 binary)
Coefficient statistics:
  Matrix range     [1e+00, 1e+00]
  Objective range  [1e+00, 1e+00]
  Bounds range     [1e+00, 1e+00]
  RHS range        [1e+00, 1e+00]
Found heuristic solution: objective 2.0000000
Presolve removed 5 rows and 10 columns
Presolve time: 0.00s
Presolve: All rows and columns removed

Explored 0 nodes (0 simplex iterations) in 0.00 seconds
Thread count was 1 (of 4 available processors)

Solution count 2: 1 2 

Optimal solution found (tolerance 1.00e-04)
Best objective 1.000000000000e+00, best bound 1.000000000000e+00, gap 0.0000%

Gurobi 8.1.1 (linux64, Python) logging started Sex 10 Mai 2019 11:06:55 -03

Academic license - for non-commercial use only

Gurobi 8.1.1 (linux64, Python) logging started Sex 10 Mai 2019 11:07:40 -03

Academic license - for non-commercial use only

Gurobi 8.1.1 (linux64, Python) logging started Sex 17 Mai 2019 08:18:15 -03

Academic license - for non-commercial use only

Gurobi 8.1.1 (linux64, Python) logging started Sex 17 Mai 2019 08:19:32 -03

Academic license - for non-commercial use only

Gurobi 8.1.1 (linux64, Python) logging started Sex 17 Mai 2019 08:21:20 -03

Academic license - for non-commercial use only

Gurobi 8.1.1 (linux64, Python) logging started Sex 17 Mai 2019 08:22:40 -03

Academic license - for non-commercial use only

Gurobi 8.1.1 (linux64, Python) logging started Sex 17 Mai 2019 08:45:26 -03

Academic license - for non-commercial use only

Gurobi 8.1.1 (linux64, Python) logging started Sex 17 Mai 2019 08:47:43 -03

Academic license - for non-commercial use only

Gurobi 8.1.1 (linux64, Python) logging started Sex 17 Mai 2019 08:50:23 -03

Academic license - for non-commercial use only

Gurobi 8.1.1 (linux64, Python) logging started Sex 17 Mai 2019 08:56:47 -03

Academic license - for non-commercial use only

Gurobi 8.1.1 (linux64, Python) logging started Sex 17 Mai 2019 08:58:00 -03

Academic license - for non-commercial use only

Gurobi 8.1.1 (linux64, Python) logging started Sex 17 Mai 2019 08:59:02 -03

Academic license - for non-commercial use only

Gurobi 8.1.1 (linux64, Python) logging started Sex 17 Mai 2019 09:00:10 -03

Academic license - for non-commercial use only

Gurobi 8.1.1 (linux64, Python) logging started Sex 17 Mai 2019 09:01:15 -03

Academic license - for non-commercial use only

Gurobi 8.1.1 (linux64, Python) logging started Sex 17 Mai 2019 09:26:10 -03

Academic license - for non-commercial use only

Gurobi 8.1.1 (linux64, Python) logging started Sex 24 Mai 2019 08:04:53 -03

Academic license - for non-commercial use only

Gurobi 8.1.1 (linux64, Python) logging started Sex 24 Mai 2019 08:06:02 -03

Academic license - for non-commercial use only

Gurobi 8.1.1 (linux64, Python) logging started Sex 24 Mai 2019 08:08:17 -03

Academic license - for non-commercial use only

Gurobi 8.1.1 (linux64, Python) logging started Sex 24 Mai 2019 08:12:51 -03

Academic license - for non-commercial use only

Gurobi 8.1.1 (linux64, Python) logging started Sex 24 Mai 2019 08:14:29 -03

Academic license - for non-commercial use only

Gurobi 8.1.1 (linux64, Python) logging started Sex 24 Mai 2019 08:15:44 -03

Academic license - for non-commercial use only

Gurobi 8.1.1 (linux64, Python) logging started Sex 24 Mai 2019 08:18:10 -03

Academic license - for non-commercial use only

Gurobi 8.1.1 (linux64, Python) logging started Sex 24 Mai 2019 08:19:46 -03

Academic license - for non-commercial use only

Gurobi 8.1.1 (linux64, Python) logging started Sex 24 Mai 2019 08:20:28 -03

Academic license - for non-commercial use only

Gurobi 8.1.1 (linux64, Python) logging started Sex 24 Mai 2019 08:21:53 -03

Academic license - for non-commercial use only

Gurobi 8.1.1 (linux64, Python) logging started Sex 24 Mai 2019 08:27:30 -03

Academic license - for non-commercial use only

Gurobi 8.1.1 (linux64, Python) logging started Sex 24 Mai 2019 08:29:52 -03

Academic license - for non-commercial use only
Optimize a model with 461 rows, 100 columns and 1448 nonzeros
Variable types: 0 continuous, 100 integer (100 binary)
Coefficient statistics:
  Matrix range     [1e+00, 1e+00]
  Objective range  [1e+00, 1e+00]
  Bounds range     [1e+00, 1e+00]
  RHS range        [1e+00, 1e+00]
Found heuristic solution: objective 13.0000000
Presolve removed 65 rows and 50 columns
Presolve time: 0.03s
Presolved: 396 rows, 50 columns, 1188 nonzeros
Variable types: 0 continuous, 50 integer (50 binary)

Root relaxation: objective 1.200000e+01, 63 iterations, 0.01 seconds

    Nodes    |    Current Node    |     Objective Bounds      |     Work
 Expl Unexpl |  Obj  Depth IntInf | Incumbent    BestBd   Gap | It/Node Time

*    0     0               0      12.0000000   12.00000  0.00%     -    0s

Explored 0 nodes (63 simplex iterations) in 0.50 seconds
Thread count was 4 (of 4 available processors)

Solution count 2: 12 13 

Optimal solution found (tolerance 1.00e-04)
Best objective 1.200000000000e+01, best bound 1.200000000000e+01, gap 0.0000%

Gurobi 8.1.1 (linux64, Python) logging started Sex 24 Mai 2019 09:44:40 -03

Academic license - for non-commercial use only

Gurobi 8.1.1 (linux64, Python) logging started Sex 24 Mai 2019 09:46:32 -03

Academic license - for non-commercial use only

Gurobi 8.1.1 (linux64, Python) logging started Sex 24 Mai 2019 09:48:47 -03

Academic license - for non-commercial use only
Optimize a model with 120 rows, 100 columns and 480 nonzeros
Variable types: 0 continuous, 100 integer (100 binary)
Coefficient statistics:
  Matrix range     [1e+00, 1e+00]
  Objective range  [1e+00, 1e+00]
  Bounds range     [1e+00, 1e+00]
  RHS range        [1e+00, 1e+00]
Found heuristic solution: objective 8.0000000
Presolve removed 0 rows and 74 columns
Presolve time: 0.01s
Presolved: 120 rows, 26 columns, 446 nonzeros
Variable types: 0 continuous, 26 integer (26 binary)

Root relaxation: objective 6.500000e+00, 20 iterations, 0.00 seconds

    Nodes    |    Current Node    |     Objective Bounds      |     Work
 Expl Unexpl |  Obj  Depth IntInf | Incumbent    BestBd   Gap | It/Node Time

     0     0    6.50000    0    3    8.00000    6.50000  18.8%     -    0s
H    0     0                       7.0000000    6.50000  7.14%     -    0s

Explored 1 nodes (20 simplex iterations) in 0.04 seconds
Thread count was 4 (of 4 available processors)

Solution count 2: 7 8 

Optimal solution found (tolerance 1.00e-04)
Best objective 7.000000000000e+00, best bound 7.000000000000e+00, gap 0.0000%

Gurobi 8.1.1 (linux64, Python) logging started Sex 24 Mai 2019 09:52:32 -03

Academic license - for non-commercial use only
Optimize a model with 347 rows, 100 columns and 1077 nonzeros
Variable types: 0 continuous, 100 integer (100 binary)
Coefficient statistics:
  Matrix range     [1e+00, 1e+00]
  Objective range  [1e+00, 1e+00]
  Bounds range     [1e+00, 1e+00]
  RHS range        [1e+00, 1e+00]
Found heuristic solution: objective 13.0000000
Presolve removed 35 rows and 50 columns
Presolve time: 0.00s
Presolved: 312 rows, 50 columns, 937 nonzeros
Variable types: 0 continuous, 50 integer (50 binary)

Root relaxation: objective 1.000000e+01, 30 iterations, 0.00 seconds

    Nodes    |    Current Node    |     Objective Bounds      |     Work
 Expl Unexpl |  Obj  Depth IntInf | Incumbent    BestBd   Gap | It/Node Time

*    0     0               0      10.0000000   10.00000  0.00%     -    0s

Explored 0 nodes (30 simplex iterations) in 0.00 seconds
Thread count was 4 (of 4 available processors)

Solution count 2: 10 13 

Optimal solution found (tolerance 1.00e-04)
Best objective 1.000000000000e+01, best bound 1.000000000000e+01, gap 0.0000%

Gurobi 8.1.1 (linux64, Python) logging started Sex 24 Mai 2019 09:55:00 -03

Academic license - for non-commercial use only
Optimize a model with 524 rows, 100 columns and 1656 nonzeros
Variable types: 0 continuous, 100 integer (100 binary)
Coefficient statistics:
  Matrix range     [1e+00, 1e+00]
  Objective range  [1e+00, 1e+00]
  Bounds range     [1e+00, 1e+00]
  RHS range        [1e+00, 1e+00]
Found heuristic solution: objective 13.0000000
Presolve removed 84 rows and 50 columns
Presolve time: 0.00s
Presolved: 440 rows, 50 columns, 1320 nonzeros
Variable types: 0 continuous, 50 integer (50 binary)

Root relaxation: objective 1.200000e+01, 41 iterations, 0.00 seconds

    Nodes    |    Current Node    |     Objective Bounds      |     Work
 Expl Unexpl |  Obj  Depth IntInf | Incumbent    BestBd   Gap | It/Node Time

*    0     0               0      12.0000000   12.00000  0.00%     -    0s

Explored 0 nodes (41 simplex iterations) in 0.00 seconds
Thread count was 4 (of 4 available processors)

Solution count 2: 12 13 

Optimal solution found (tolerance 1.00e-04)
Best objective 1.200000000000e+01, best bound 1.200000000000e+01, gap 0.0000%

Gurobi 8.1.1 (linux64, Python) logging started Sex 24 Mai 2019 10:05:29 -03

Academic license - for non-commercial use only

Gurobi 8.1.1 (linux64, Python) logging started Sex 24 Mai 2019 10:10:17 -03

Academic license - for non-commercial use only
Optimize a model with 464 rows, 100 columns and 1452 nonzeros
Variable types: 0 continuous, 100 integer (100 binary)
Coefficient statistics:
  Matrix range     [1e+00, 1e+00]
  Objective range  [1e+00, 1e+00]
  Bounds range     [1e+00, 1e+00]
  RHS range        [1e+00, 1e+00]
Found heuristic solution: objective 14.0000000
Presolve removed 60 rows and 50 columns
Presolve time: 0.00s
Presolved: 404 rows, 50 columns, 1212 nonzeros
Variable types: 0 continuous, 50 integer (50 binary)

Root relaxation: objective 1.300000e+01, 69 iterations, 0.00 seconds

    Nodes    |    Current Node    |     Objective Bounds      |     Work
 Expl Unexpl |  Obj  Depth IntInf | Incumbent    BestBd   Gap | It/Node Time

*    0     0               0      13.0000000   13.00000  0.00%     -    0s

Explored 0 nodes (69 simplex iterations) in 0.00 seconds
Thread count was 4 (of 4 available processors)

Solution count 2: 13 14 

Optimal solution found (tolerance 1.00e-04)
Best objective 1.300000000000e+01, best bound 1.300000000000e+01, gap 0.0000%

Gurobi 8.1.1 (linux64, Python) logging started Sex 24 Mai 2019 10:11:51 -03

Academic license - for non-commercial use only
Optimize a model with 530 rows, 100 columns and 1670 nonzeros
Variable types: 0 continuous, 100 integer (100 binary)
Coefficient statistics:
  Matrix range     [1e+00, 1e+00]
  Objective range  [1e+00, 1e+00]
  Bounds range     [1e+00, 1e+00]
  RHS range        [1e+00, 1e+00]
Found heuristic solution: objective 17.0000000
Presolve removed 78 rows and 50 columns
Presolve time: 0.00s
Presolved: 452 rows, 50 columns, 1358 nonzeros
Variable types: 0 continuous, 50 integer (50 binary)

Root relaxation: objective 1.500000e+01, 61 iterations, 0.00 seconds

    Nodes    |    Current Node    |     Objective Bounds      |     Work
 Expl Unexpl |  Obj  Depth IntInf | Incumbent    BestBd   Gap | It/Node Time

*    0     0               0      15.0000000   15.00000  0.00%     -    0s

Explored 0 nodes (61 simplex iterations) in 0.00 seconds
Thread count was 4 (of 4 available processors)

Solution count 2: 15 17 

Optimal solution found (tolerance 1.00e-04)
Best objective 1.500000000000e+01, best bound 1.500000000000e+01, gap 0.0000%

Gurobi 8.1.1 (linux64, Python) logging started Sex 24 Mai 2019 10:13:19 -03

Academic license - for non-commercial use only
Optimize a model with 581 rows, 100 columns and 1847 nonzeros
Variable types: 0 continuous, 100 integer (100 binary)
Coefficient statistics:
  Matrix range     [1e+00, 1e+00]
  Objective range  [1e+00, 1e+00]
  Bounds range     [1e+00, 1e+00]
  RHS range        [1e+00, 1e+00]
Found heuristic solution: objective 15.0000000
Presolve removed 103 rows and 50 columns
Presolve time: 0.00s
Presolved: 478 rows, 50 columns, 1435 nonzeros
Variable types: 0 continuous, 50 integer (50 binary)

Root relaxation: objective 1.400000e+01, 69 iterations, 0.00 seconds

    Nodes    |    Current Node    |     Objective Bounds      |     Work
 Expl Unexpl |  Obj  Depth IntInf | Incumbent    BestBd   Gap | It/Node Time

*    0     0               0      14.0000000   14.00000  0.00%     -    0s

Explored 0 nodes (69 simplex iterations) in 0.01 seconds
Thread count was 4 (of 4 available processors)

Solution count 2: 14 15 

Optimal solution found (tolerance 1.00e-04)
Best objective 1.400000000000e+01, best bound 1.400000000000e+01, gap 0.0000%

Gurobi 8.1.1 (linux64, Python) logging started Sex 24 Mai 2019 10:17:05 -03

Academic license - for non-commercial use only
Optimize a model with 463 rows, 100 columns and 1449 nonzeros
Variable types: 0 continuous, 100 integer (100 binary)
Coefficient statistics:
  Matrix range     [1e+00, 1e+00]
  Objective range  [1e+00, 1e+00]
  Bounds range     [1e+00, 1e+00]
  RHS range        [1e+00, 1e+00]
Found heuristic solution: objective 20.0000000
Presolve removed 246 rows and 68 columns
Presolve time: 0.00s
Presolved: 217 rows, 32 columns, 546 nonzeros
Variable types: 0 continuous, 32 integer (32 binary)

Root relaxation: objective 1.200000e+01, 25 iterations, 0.00 seconds

    Nodes    |    Current Node    |     Objective Bounds      |     Work
 Expl Unexpl |  Obj  Depth IntInf | Incumbent    BestBd   Gap | It/Node Time

*    0     0               0      12.0000000   12.00000  0.00%     -    0s

Explored 0 nodes (25 simplex iterations) in 0.01 seconds
Thread count was 4 (of 4 available processors)

Solution count 2: 12 20 

Optimal solution found (tolerance 1.00e-04)
Best objective 1.200000000000e+01, best bound 1.200000000000e+01, gap 0.0000%

Gurobi 8.1.1 (linux64, Python) logging started Sex 24 Mai 2019 10:17:58 -03

Academic license - for non-commercial use only
Optimize a model with 463 rows, 100 columns and 1449 nonzeros
Variable types: 0 continuous, 100 integer (100 binary)
Coefficient statistics:
  Matrix range     [1e+00, 1e+00]
  Objective range  [1e+00, 1e+00]
  Bounds range     [1e+00, 1e+00]
  RHS range        [1e+00, 1e+00]
Found heuristic solution: objective 20.0000000
Presolve removed 246 rows and 68 columns
Presolve time: 0.00s
Presolved: 217 rows, 32 columns, 546 nonzeros
Variable types: 0 continuous, 32 integer (32 binary)

Root relaxation: objective 1.200000e+01, 25 iterations, 0.00 seconds

    Nodes    |    Current Node    |     Objective Bounds      |     Work
 Expl Unexpl |  Obj  Depth IntInf | Incumbent    BestBd   Gap | It/Node Time

*    0     0               0      12.0000000   12.00000  0.00%     -    0s

Explored 0 nodes (25 simplex iterations) in 0.01 seconds
Thread count was 4 (of 4 available processors)

Solution count 2: 12 20 

Optimal solution found (tolerance 1.00e-04)
Best objective 1.200000000000e+01, best bound 1.200000000000e+01, gap 0.0000%

Gurobi 8.1.1 (linux64, Python) logging started Sex 24 Mai 2019 10:45:38 -03

Academic license - for non-commercial use only

Gurobi 8.1.1 (linux64, Python) logging started Sex 24 Mai 2019 10:46:27 -03

Academic license - for non-commercial use only
Optimize a model with 463 rows, 100 columns and 1449 nonzeros
Variable types: 0 continuous, 100 integer (100 binary)
Coefficient statistics:
  Matrix range     [1e+00, 1e+00]
  Objective range  [1e+00, 1e+00]
  Bounds range     [1e+00, 1e+00]
  RHS range        [1e+00, 1e+00]
Found heuristic solution: objective 20.0000000
Presolve removed 246 rows and 68 columns
Presolve time: 0.00s
Presolved: 217 rows, 32 columns, 546 nonzeros
Variable types: 0 continuous, 32 integer (32 binary)

Root relaxation: objective 1.200000e+01, 25 iterations, 0.00 seconds

    Nodes    |    Current Node    |     Objective Bounds      |     Work
 Expl Unexpl |  Obj  Depth IntInf | Incumbent    BestBd   Gap | It/Node Time

*    0     0               0      12.0000000   12.00000  0.00%     -    0s

Explored 0 nodes (25 simplex iterations) in 0.01 seconds
Thread count was 4 (of 4 available processors)

Solution count 2: 12 20 

Optimal solution found (tolerance 1.00e-04)
Best objective 1.200000000000e+01, best bound 1.200000000000e+01, gap 0.0000%

Gurobi 8.1.1 (linux64, Python) logging started Sex 24 Mai 2019 10:50:12 -03

Academic license - for non-commercial use only

Gurobi 8.1.1 (linux64, Python) logging started Sex 24 Mai 2019 10:55:40 -03

Academic license - for non-commercial use only
Optimize a model with 1605 rows, 100 columns and 4815 nonzeros
Variable types: 0 continuous, 100 integer (100 binary)
Coefficient statistics:
  Matrix range     [1e+00, 1e+00]
  Objective range  [1e+00, 1e+00]
  Bounds range     [1e+00, 1e+00]
  RHS range        [1e+00, 1e+00]
Found heuristic solution: objective 20.0000000
Presolve removed 0 rows and 50 columns
Presolve time: 0.00s
Presolved: 1605 rows, 50 columns, 4815 nonzeros
Variable types: 0 continuous, 50 integer (50 binary)

Root relaxation: objective 1.666667e+01, 143 iterations, 0.00 seconds

    Nodes    |    Current Node    |     Objective Bounds      |     Work
 Expl Unexpl |  Obj  Depth IntInf | Incumbent    BestBd   Gap | It/Node Time

     0     0   16.66667    0   50   20.00000   16.66667  16.7%     -    0s
     0     0     cutoff    0        20.00000   20.00000  0.00%     -    0s

Cutting planes:
  MIR: 85
  Zero half: 1

Explored 1 nodes (195 simplex iterations) in 0.51 seconds
Thread count was 4 (of 4 available processors)

Solution count 1: 20 

Optimal solution found (tolerance 1.00e-04)
Best objective 2.000000000000e+01, best bound 2.000000000000e+01, gap 0.0000%

Gurobi 8.1.1 (linux64, Python) logging started Sex 24 Mai 2019 10:58:29 -03

Academic license - for non-commercial use only
Optimize a model with 1605 rows, 100 columns and 4815 nonzeros
Variable types: 0 continuous, 100 integer (100 binary)
Coefficient statistics:
  Matrix range     [1e+00, 1e+00]
  Objective range  [1e+00, 1e+00]
  Bounds range     [1e+00, 1e+00]
  RHS range        [1e+00, 1e+00]
Found heuristic solution: objective 20.0000000
Presolve removed 0 rows and 50 columns
Presolve time: 0.00s
Presolved: 1605 rows, 50 columns, 4815 nonzeros
Variable types: 0 continuous, 50 integer (50 binary)

Root relaxation: objective 1.666667e+01, 143 iterations, 0.00 seconds

    Nodes    |    Current Node    |     Objective Bounds      |     Work
 Expl Unexpl |  Obj  Depth IntInf | Incumbent    BestBd   Gap | It/Node Time

     0     0   16.66667    0   50   20.00000   16.66667  16.7%     -    0s
     0     0     cutoff    0        20.00000   20.00000  0.00%     -    0s

Cutting planes:
  User: 1
  MIR: 135
  Zero half: 2

Explored 1 nodes (190 simplex iterations) in 0.05 seconds
Thread count was 4 (of 4 available processors)

Solution count 1: 20 

Optimal solution found (tolerance 1.00e-04)
Best objective 2.000000000000e+01, best bound 2.000000000000e+01, gap 0.0000%
